% demand
num_movements = 26;
loading_factor = [850, 900, 1150, 1700, 1300, 1100, 1100, 1850, 950, 800, 1000, 950, 1750, 1450, 1150, 1500, 900, 1900, 1600, 1400, 1150, 1600, 1000, 2000, 1400, 1000];
pickup_time = [0, 0, 0, 0, 0, 0, 1, 1, 1, 2, 3, 3, 3, 3, 4, 5, 5, 5, 5, 7, 7, 8, 9, 10, 10, 10];
delivery_time = [2, 2, 1, 1, 1, 1, 7, 3, 2, 3, 4, 4, 4, 4, 5, 9, 10, 7, 11, 9, 8, 10, 11, 11, 11, 11];

% transporter definition
total_capacity = 7000;
num_decks = 3;
capacity = [3000, 1000, 3000];

% ways out of decks
num_ways_out = 1;
paths_out = array3d(decks, ways_out, decks, [
% ways out of deck d1
2, 3, 0, 

% ways out of deck d2
3, 0, 0, 

% ways out of deck d3
0, 0, 0,	

]);

